experiments/scripts/extractfix/libjpeg/CVE-2017-15232/components/t.smt2
(declare-const rvalue_t (_ BitVec 32))
(declare-const lvalue_t (_ BitVec 32))
(declare-const rreturn (_ BitVec 32))
(declare-const lreturn (_ BitVec 32))
(assert (and (= rreturn rvalue_t) (= lreturn lvalue_t)))